1613855
19,3,47,1,26,44,16,8,57,14,7,67,34,52,36,50,38,61,43,13,9,17,56,32,51,21,30,27,49,35,58,15,62,23,60,2,20,37,66,6,42,33,54,45,25,65,10,63,40,5,29,24,28,59,22,48,18,4,39,55,31,41,11,0,46,12,53,64,19